id: 510
name: fxm3_16
group: meszaros/stochlp
method: 1

Gurobi 7.0.2 (linux64, Matlab) logging started Thu Apr 19 15:57:12 2018


Gurobi 7.0.2 (linux64) logging started Thu Apr 19 15:57:12 2018

Optimize a model with 41340 rows, 64162 columns and 370839 nonzeros
Coefficient statistics:
  Matrix range     [5e-04, 1e+02]
  Objective range  [4e-03, 1e+01]
  Bounds range     [0e+00, 0e+00]
  RHS range        [8e-01, 2e+03]
Presolve removed 9231 rows and 7608 columns
Presolve time: 0.11s
Presolved: 32109 rows, 56554 columns, 315190 nonzeros

Iteration    Objective       Primal Inf.    Dual Inf.      Time
       0   -1.3941000e+31   4.912795e+32   1.394100e+01      0s
   42515    1.8438995e+04   0.000000e+00   0.000000e+00      1s

Solved in 42515 iterations and 1.34 seconds
Optimal objective  1.843899508e+04
status: OPTIMAL
